c turning on binary mode checking
c parsing input formula with 202048 variables and 780980 clauses
c finished parsing, read 16271474 bytes from proof file
c detected empty clause; start verification via backward checking
c 4804 of 780980 clauses in core                            
c 3990 of 439645 lemmas in core using 26593 resolution steps
c 0 RAT lemmas in core; 120 redundant literals in core lemmas
s VERIFIED
c verification time: 2.023 seconds
